12
11
31
189
63
0
25
50
0
0
8
164
35
0
27
32
20
16
66
18
21
7
34
22
14
10
39
33
26
49
41
22
33
0
0
34
63
9
14
0
52
9
8
0
0
0
0
47
14
24
0
74
106
25
8
116
34
47
76
53
77
76
7
129
15
126
61
117
44
17
0
44
88
117
0
36
32
36
71
21
20
39
9
0
88
117
22
46
30
0
187
6
34
45
0
54
29
73
13
138
